c nIsolatedPIs 0
c maxPI 32
p cnf 193 484
c gate 33 -2 -18 0
-2 -33 0
-18 -33 0
2 18 33 0
c gate 34 15 -31 0
15 -34 0
-31 -34 0
-15 31 34 0
c gate 35 -13 29 0
-13 -35 0
29 -35 0
13 -29 35 0
c gate 36 14 -30 0
14 -36 0
-30 -36 0
-14 30 36 0
c gate 37 -14 30 0
-14 -37 0
30 -37 0
14 -30 37 0
c gate 38 -36 -37 0
-36 -38 0
-37 -38 0
36 37 38 0
c gate 39 35 38 0
35 -39 0
38 -39 0
-35 -38 39 0
c gate 40 12 -28 0
12 -40 0
-28 -40 0
-12 28 40 0
c gate 41 11 -27 0
11 -41 0
-27 -41 0
-11 27 41 0
c gate 42 -10 26 0
-10 -42 0
26 -42 0
10 -26 42 0
c gate 43 10 -26 0
10 -43 0
-26 -43 0
-10 26 43 0
c gate 44 -9 25 0
-9 -44 0
25 -44 0
9 -25 44 0
c gate 45 7 -23 0
7 -45 0
-23 -45 0
-7 23 45 0
c gate 46 -6 22 0
-6 -46 0
22 -46 0
6 -22 46 0
c gate 47 2 -18 0
2 -47 0
-18 -47 0
-2 18 47 0
c gate 48 -1 17 0
-1 -48 0
17 -48 0
1 -17 48 0
c gate 49 -47 48 0
-47 -49 0
48 -49 0
47 -48 49 0
c gate 50 -3 19 0
-3 -50 0
19 -50 0
3 -19 50 0
c gate 51 -2 18 0
-2 -51 0
18 -51 0
2 -18 51 0
c gate 52 -50 -51 0
-50 -52 0
-51 -52 0
50 51 52 0
c gate 53 -49 52 0
-49 -53 0
52 -53 0
49 -52 53 0
c gate 54 4 -20 0
4 -54 0
-20 -54 0
-4 20 54 0
c gate 55 3 -19 0
3 -55 0
-19 -55 0
-3 19 55 0
c gate 56 -54 -55 0
-54 -56 0
-55 -56 0
54 55 56 0
c gate 57 -53 56 0
-53 -57 0
56 -57 0
53 -56 57 0
c gate 58 -5 21 0
-5 -58 0
21 -58 0
5 -21 58 0
c gate 59 -4 20 0
-4 -59 0
20 -59 0
4 -20 59 0
c gate 60 -58 -59 0
-58 -60 0
-59 -60 0
58 59 60 0
c gate 61 -57 60 0
-57 -61 0
60 -61 0
57 -60 61 0
c gate 62 6 -22 0
6 -62 0
-22 -62 0
-6 22 62 0
c gate 63 5 -21 0
5 -63 0
-21 -63 0
-5 21 63 0
c gate 64 -62 -63 0
-62 -64 0
-63 -64 0
62 63 64 0
c gate 65 -61 64 0
-61 -65 0
64 -65 0
61 -64 65 0
c gate 66 -46 -65 0
-46 -66 0
-65 -66 0
46 65 66 0
c gate 67 -45 -66 0
-45 -67 0
-66 -67 0
45 66 67 0
c gate 68 -7 23 0
-7 -68 0
23 -68 0
7 -23 68 0
c gate 69 -8 24 0
-8 -69 0
24 -69 0
8 -24 69 0
c gate 70 -68 -69 0
-68 -70 0
-69 -70 0
68 69 70 0
c gate 71 -67 70 0
-67 -71 0
70 -71 0
67 -70 71 0
c gate 72 8 -24 0
8 -72 0
-24 -72 0
-8 24 72 0
c gate 73 9 -25 0
9 -73 0
-25 -73 0
-9 25 73 0
c gate 74 -72 -73 0
-72 -74 0
-73 -74 0
72 73 74 0
c gate 75 -71 74 0
-71 -75 0
74 -75 0
71 -74 75 0
c gate 76 -44 -75 0
-44 -76 0
-75 -76 0
44 75 76 0
c gate 77 -43 -76 0
-43 -77 0
-76 -77 0
43 76 77 0
c gate 78 -42 -77 0
-42 -78 0
-77 -78 0
42 77 78 0
c gate 79 -41 -78 0
-41 -79 0
-78 -79 0
41 78 79 0
c gate 80 -12 28 0
-12 -80 0
28 -80 0
12 -28 80 0
c gate 81 -11 27 0
-11 -81 0
27 -81 0
11 -27 81 0
c gate 82 -80 -81 0
-80 -82 0
-81 -82 0
80 81 82 0
c gate 83 -79 82 0
-79 -83 0
82 -83 0
79 -82 83 0
c gate 84 -40 -83 0
-40 -84 0
-83 -84 0
40 83 84 0
c gate 85 13 -29 0
13 -85 0
-29 -85 0
-13 29 85 0
c gate 86 -36 -85 0
-36 -86 0
-85 -86 0
36 85 86 0
c gate 87 84 86 0
84 -87 0
86 -87 0
-84 -86 87 0
c gate 88 -15 31 0
-15 -88 0
31 -88 0
15 -31 88 0
c gate 89 -37 -88 0
-37 -89 0
-88 -89 0
37 88 89 0
c gate 90 -87 89 0
-87 -90 0
89 -90 0
87 -89 90 0
c gate 91 -39 90 0
-39 -91 0
90 -91 0
39 -90 91 0
c gate 92 -34 -91 0
-34 -92 0
-91 -92 0
34 91 92 0
c gate 93 -16 -32 0
-16 -93 0
-32 -93 0
16 32 93 0
c gate 94 16 32 0
16 -94 0
32 -94 0
-16 -32 94 0
c gate 95 -93 -94 0
-93 -95 0
-94 -95 0
93 94 95 0
c gate 96 92 -95 0
92 -96 0
-95 -96 0
-92 95 96 0
c gate 97 -92 95 0
-92 -97 0
95 -97 0
92 -95 97 0
c gate 98 -96 -97 0
-96 -98 0
-97 -98 0
96 97 98 0
c gate 99 -90 -95 0
-90 -99 0
-95 -99 0
90 95 99 0
c gate 100 90 95 0
90 -100 0
95 -100 0
-90 -95 100 0
c gate 101 -99 -100 0
-99 -101 0
-100 -101 0
99 100 101 0
c gate 102 98 -101 0
98 -102 0
-101 -102 0
-98 101 102 0
c gate 103 -98 101 0
-98 -103 0
101 -103 0
98 -101 103 0
c gate 104 -34 -88 0
-34 -104 0
-88 -104 0
34 88 104 0
c gate 105 39 104 0
39 -105 0
104 -105 0
-39 -104 105 0
c gate 106 -84 105 0
-84 -106 0
105 -106 0
84 -105 106 0
c gate 107 35 -84 0
35 -107 0
-84 -107 0
-35 84 107 0
c gate 108 -9 -25 0
-9 -108 0
-25 -108 0
9 25 108 0
c gate 109 -69 -72 0
-69 -109 0
-72 -109 0
69 72 109 0
c gate 110 7 23 0
7 -110 0
23 -110 0
-7 -23 110 0
c gate 111 4 20 0
4 -111 0
20 -111 0
-4 -20 111 0
c gate 112 3 19 0
3 -112 0
19 -112 0
-3 -19 112 0
c gate 113 -111 -112 0
-111 -113 0
-112 -113 0
111 112 113 0
c gate 114 1 17 0
1 -114 0
17 -114 0
-1 -17 114 0
c gate 115 2 18 0
2 -115 0
18 -115 0
-2 -18 115 0
c gate 116 -114 -115 0
-114 -116 0
-115 -116 0
114 115 116 0
c gate 117 -3 -19 0
-3 -117 0
-19 -117 0
3 19 117 0
c gate 118 -116 -117 0
-116 -118 0
-117 -118 0
116 117 118 0
c gate 119 113 -118 0
113 -119 0
-118 -119 0
-113 118 119 0
c gate 120 -5 -21 0
-5 -120 0
-21 -120 0
5 21 120 0
c gate 121 -4 -20 0
-4 -121 0
-20 -121 0
4 20 121 0
c gate 122 -120 -121 0
-120 -122 0
-121 -122 0
120 121 122 0
c gate 123 -119 122 0
-119 -123 0
122 -123 0
119 -122 123 0
c gate 124 33 113 0
33 -124 0
113 -124 0
-33 -113 124 0
c gate 125 123 -124 0
123 -125 0
-124 -125 0
-123 124 125 0
c gate 126 5 21 0
5 -126 0
21 -126 0
-5 -21 126 0
c gate 127 6 22 0
6 -127 0
22 -127 0
-6 -22 127 0
c gate 128 -126 -127 0
-126 -128 0
-127 -128 0
126 127 128 0
c gate 129 -125 128 0
-125 -129 0
128 -129 0
125 -128 129 0
c gate 130 -123 129 0
-123 -130 0
129 -130 0
123 -129 130 0
c gate 131 -7 -23 0
-7 -131 0
-23 -131 0
7 23 131 0
c gate 132 -130 -131 0
-130 -132 0
-131 -132 0
130 131 132 0
c gate 133 -110 -132 0
-110 -133 0
-132 -133 0
110 132 133 0
c gate 134 -109 -133 0
-109 -134 0
-133 -134 0
109 133 134 0
c gate 135 8 24 0
8 -135 0
24 -135 0
-8 -24 135 0
c gate 136 -134 -135 0
-134 -136 0
-135 -136 0
134 135 136 0
c gate 137 -108 -136 0
-108 -137 0
-136 -137 0
108 136 137 0
c gate 138 10 26 0
10 -138 0
26 -138 0
-10 -26 138 0
c gate 139 9 25 0
9 -139 0
25 -139 0
-9 -25 139 0
c gate 140 -138 -139 0
-138 -140 0
-139 -140 0
138 139 140 0
c gate 141 -137 140 0
-137 -141 0
140 -141 0
137 -140 141 0
c gate 142 -10 -26 0
-10 -142 0
-26 -142 0
10 26 142 0
c gate 143 -11 -27 0
-11 -143 0
-27 -143 0
11 27 143 0
c gate 144 -142 -143 0
-142 -144 0
-143 -144 0
142 143 144 0
c gate 145 -141 144 0
-141 -145 0
144 -145 0
141 -144 145 0
c gate 146 11 27 0
11 -146 0
27 -146 0
-11 -27 146 0
c gate 147 12 28 0
12 -147 0
28 -147 0
-12 -28 147 0
c gate 148 -146 -147 0
-146 -148 0
-147 -148 0
146 147 148 0
c gate 149 -145 148 0
-145 -149 0
148 -149 0
145 -148 149 0
c gate 150 -6 -22 0
-6 -150 0
-22 -150 0
6 22 150 0
c gate 151 -129 -150 0
-129 -151 0
-150 -151 0
129 150 151 0
c gate 152 -110 -151 0
-110 -152 0
-151 -152 0
110 151 152 0
c gate 153 -131 -152 0
-131 -153 0
-152 -153 0
131 152 153 0
c gate 154 -109 153 0
-109 -154 0
153 -154 0
109 -153 154 0
c gate 155 -135 -139 0
-135 -155 0
-139 -155 0
135 139 155 0
c gate 156 -154 155 0
-154 -156 0
155 -156 0
154 -155 156 0
c gate 157 -108 -142 0
-108 -157 0
-142 -157 0
108 142 157 0
c gate 158 -156 157 0
-156 -158 0
157 -158 0
156 -157 158 0
c gate 159 -138 -146 0
-138 -159 0
-146 -159 0
138 146 159 0
c gate 160 -158 159 0
-158 -160 0
159 -160 0
158 -159 160 0
c gate 161 -12 -28 0
-12 -161 0
-28 -161 0
12 28 161 0
c gate 162 -143 -161 0
-143 -162 0
-161 -162 0
143 161 162 0
c gate 163 -160 162 0
-160 -163 0
162 -163 0
160 -162 163 0
c gate 164 -38 95 0
-38 -164 0
95 -164 0
38 -95 164 0
c gate 165 -40 -80 0
-40 -165 0
-80 -165 0
40 80 165 0
c gate 166 -35 -85 0
-35 -166 0
-85 -166 0
35 85 166 0
c gate 167 -104 -166 0
-104 -167 0
-166 -167 0
104 166 167 0
c gate 168 -165 167 0
-165 -168 0
167 -168 0
165 -167 168 0
c gate 169 164 168 0
164 -169 0
168 -169 0
-164 -168 169 0
c gate 170 -163 169 0
-163 -170 0
169 -170 0
163 -169 170 0
c gate 171 -149 170 0
-149 -171 0
170 -171 0
149 -170 171 0
c gate 172 109 -153 0
109 -172 0
-153 -172 0
-109 153 172 0
c gate 173 -154 -172 0
-154 -173 0
-172 -173 0
154 172 173 0
c gate 174 109 133 0
109 -174 0
133 -174 0
-109 -133 174 0
c gate 175 -134 -174 0
-134 -175 0
-174 -175 0
134 174 175 0
c gate 176 173 -175 0
173 -176 0
-175 -176 0
-173 175 176 0
c gate 177 -171 176 0
-171 -177 0
176 -177 0
171 -176 177 0
c gate 178 114 115 0
114 -178 0
115 -178 0
-114 -115 178 0
c gate 179 -130 -151 0
-130 -179 0
-151 -179 0
130 151 179 0
c gate 180 178 -179 0
178 -180 0
-179 -180 0
-178 179 180 0
c gate 181 132 152 0
132 -181 0
152 -181 0
-132 -152 181 0
c gate 182 -180 -181 0
-180 -182 0
-181 -182 0
180 181 182 0
c gate 183 -173 175 0
-173 -183 0
175 -183 0
173 -175 183 0
c gate 184 -182 -183 0
-182 -184 0
-183 -184 0
182 183 184 0
c gate 185 -177 184 0
-177 -185 0
184 -185 0
177 -184 185 0
c gate 186 -107 185 0
-107 -186 0
185 -186 0
107 -185 186 0
c gate 187 -106 -186 0
-106 -187 0
-186 -187 0
106 186 187 0
c gate 188 -103 187 0
-103 -188 0
187 -188 0
103 -187 188 0
c gate 189 -102 -188 0
-102 -189 0
-188 -189 0
102 188 189 0
c gate 190 -33 189 0
-33 -190 0
189 -190 0
33 -189 190 0
c gate 191 -115 -189 0
-115 -191 0
-189 -191 0
115 189 191 0
c gate 192 114 -191 0
114 -192 0
-191 -192 0
-114 191 192 0
c gate 193 -190 192 0
-190 -193 0
192 -193 0
190 -192 193 0
c PO
193 0
